/*********************************************
 * OPL 12.7.1.0 Data
 * Author: Chung
 * Creation Date: Mar 23, 2018 at 12:15:57 AM
 *********************************************/
REL = [ 2  5  4  0  0  8  9];
DUR = [ 5  6  8  4  2  4  2];
DUE = [10 21 15 10  5 15 22];